c colouring generated by benchmark framework
p edge 196 4186
v 1 18
v 2 7
v 3 3
v 4 10
v 5 19
v 6 16
v 7 13
v 8 1
v 9 9
v 10 5
v 11 15
v 12 2
v 13 12
v 14 6
v 15 9
v 16 6
v 17 4
v 18 2
v 19 15
v 20 12
v 21 14
v 22 3
v 23 18
v 24 11
v 25 0
v 26 7
v 27 16
v 28 5
v 29 16
v 30 2
v 31 9
v 32 3
v 33 5
v 34 13
v 35 0
v 36 10
v 37 12
v 38 19
v 39 8
v 40 14
v 41 17
v 42 7
v 43 11
v 44 5
v 45 18
v 46 1
v 47 0
v 48 20
v 49 17
v 50 7
v 51 6
v 52 14
v 53 13
v 54 12
v 55 10
v 56 19
v 57 6
v 58 14
v 59 0
v 60 19
v 61 10
v 62 15
v 63 18
v 64 9
v 65 1
v 66 3
v 67 4
v 68 17
v 69 13
v 70 12
v 71 2
v 72 9
v 73 7
v 74 4
v 75 6
v 76 3
v 77 1
v 78 0
v 79 11
v 80 15
v 81 12
v 82 5
v 83 8
v 84 20
v 85 14
v 86 17
v 87 15
v 88 9
v 89 13
v 90 7
v 91 11
v 92 18
v 93 10
v 94 20
v 95 16
v 96 4
v 97 0
v 98 2
v 99 3
v 100 19
v 101 14
v 102 16
v 103 17
v 104 10
v 105 4
v 106 13
v 107 2
v 108 9
v 109 18
v 110 11
v 111 20
v 112 15
v 113 13
v 114 12
v 115 2
v 116 15
v 117 3
v 118 1
v 119 8
v 120 16
v 121 20
v 122 10
v 123 17
v 124 19
v 125 14
v 126 18
v 127 1
v 128 8
v 129 13
v 130 18
v 131 20
v 132 0
v 133 19
v 134 17
v 135 14
v 136 16
v 137 5
v 138 6
v 139 4
v 140 9
v 141 0
v 142 4
v 143 5
v 144 8
v 145 9
v 146 18
v 147 10
v 148 6
v 149 15
v 150 17
v 151 2
v 152 20
v 153 19
v 154 14
v 155 20
v 156 16
v 157 17
v 158 14
v 159 1
v 160 8
v 161 5
v 162 19
v 163 13
v 164 7
v 165 10
v 166 15
v 167 9
v 168 11
v 169 19
v 170 10
v 171 20
v 172 0
v 173 7
v 174 2
v 175 12
v 176 4
v 177 17
v 178 8
v 179 11
v 180 3
v 181 5
v 182 13
v 183 7
v 184 18
v 185 8
v 186 6
v 187 16
v 188 4
v 189 9
v 190 5
v 191 19
v 192 12
v 193 20
v 194 1
v 195 15
v 196 17
